c cnf generated file for haplotype inference
c author: Fernando Augusto Fernandes Braz
c contact: fernando.afb@gmail.com
p cnf 34 67
-1 0
-16 -26 0
-16 -28 0
-21 -27 0
-21 -29 0
5 6 0
-5 -6 0
17 -5 -26 0
-17 5 -26 0
17 6 28 0
-17 6 -28 0
22 -5 -27 0
-22 5 -27 0
22 6 29 0
-22 6 -29 0
26 -30 0
-26 30 0
31 0
28 -32 0
-28 32 0
28 32 -33 0
33 -28 0
33 -32 0
33 0
7 0
18 -26 0
18 -28 0
23 -27 0
23 -29 0
11 12 0
-11 -12 0
19 -11 -26 0
-19 11 -26 0
19 12 28 0
-19 12 -28 0
24 -11 -27 0
-24 11 -27 0
24 12 29 0
-24 12 -29 0
26 -30 0
-26 30 0
31 0
28 -32 0
-28 32 0
28 32 -33 0
33 -28 0
33 -32 0
33 0
14 15 0
-14 -15 0
20 -14 -26 0
-20 14 -26 0
20 15 28 0
-20 15 -28 0
25 -14 -27 0
-25 14 -27 0
25 15 29 0
-25 15 -29 0
26 -30 0
-26 30 0
31 0
28 -32 0
-28 32 0
28 32 -33 0
33 -28 0
33 -32 0
33 0
